\* Routes *\
Minimize
Objective_cost_function: 250.88125 chosen_0 + 166.36125 chosen_1
 + 168.48125 chosen_10 + 453.574375 chosen_100 + 274.36125 chosen_101
 + 289.46125 chosen_102 + 352.4775 chosen_103 + 432.24125 chosen_104
 + 397.30875 chosen_105 + 455.015 chosen_106 + 332.756875 chosen_107
 + 368.15625 chosen_108 + 250.266875 chosen_109 + 242.303125 chosen_11
 + 292.0775 chosen_110 + 459.513125 chosen_111 + 428.8125 chosen_112
 + 306.2775 chosen_113 + 273.57125 chosen_114 + 311.63875 chosen_115
 + 411.155625 chosen_116 + 379.195625 chosen_117 + 201.524375 chosen_118
 + 309.87 chosen_119 + 373.061875 chosen_12 + 328.020625 chosen_120
 + 246.331875 chosen_121 + 422.43625 chosen_122 + 360.045625 chosen_123
 + 345.500625 chosen_124 + 318.46875 chosen_125 + 227.93 chosen_126
 + 333.12375 chosen_127 + 415.856875 chosen_128 + 225.9675 chosen_129
 + 299.673125 chosen_13 + 230.05875 chosen_130 + 228.26 chosen_131
 + 55.914375 chosen_132 + 273.11875 chosen_133 + 154.011875 chosen_134
 + 282.975 chosen_135 + 214.804375 chosen_136 + 345.820625 chosen_137
 + 575.0075 chosen_138 + 368.698125 chosen_139 + 300.333125 chosen_14
 + 653.81375 chosen_140 + 594.959375 chosen_141 + 428.1875 chosen_142
 + 461.235 chosen_143 + 479.83875 chosen_144 + 528.880625 chosen_145
 + 434.135625 chosen_146 + 603.194375 chosen_147 + 348.6125 chosen_148
 + 491.045 chosen_149 + 432.42125 chosen_15 + 369.104375 chosen_150
 + 294.59875 chosen_151 + 573.01375 chosen_152 + 517.54375 chosen_153
 + 411.055 chosen_154 + 396.314375 chosen_155 + 452.05125 chosen_156
 + 580.229375 chosen_157 + 541.53 chosen_158 + 216.119375 chosen_159
 + 433.385625 chosen_16 + 479.83875 chosen_160 + 523.015 chosen_161
 + 412.021875 chosen_162 + 574.025625 chosen_163 + 527.548125 chosen_164
 + 476.66625 chosen_165 + 509.813125 chosen_166 + 407.61625 chosen_167
 + 350.420625 chosen_168 + 557.194375 chosen_169 + 404.415625 chosen_17
 + 350.13875 chosen_170 + 242.2225 chosen_171 + 348.23125 chosen_172
 + 197.43125 chosen_173 + 418.785625 chosen_174 + 296.200625 chosen_175
 + 435.790625 chosen_176 + 245.54875 chosen_177 + 468.41875 chosen_178
 + 687.52 chosen_179 + 530.00875 chosen_18 + 408.31125 chosen_180
 + 767.314375 chosen_181 + 746.54875 chosen_182 + 568.6 chosen_183
 + 588.59625 chosen_184 + 583.715625 chosen_185 + 686.905625 chosen_186
 + 458.3075 chosen_187 + 765.52875 chosen_188 + 365.19625 chosen_189
 + 409.435625 chosen_19 + 682.389375 chosen_190 + 387.186875 chosen_191
 + 407.268125 chosen_192 + 746.938125 chosen_193 + 685.04625 chosen_194
 + 561.33375 chosen_195 + 562.004375 chosen_196 + 556.82875 chosen_197
 + 765.7925 chosen_198 + 709.76375 chosen_199 + 167.025625 chosen_2
 + 522.045 chosen_20 + 357.63625 chosen_200 + 590.3025 chosen_201
 + 650.37625 chosen_202 + 618.488125 chosen_203 + 701.698125 chosen_204
 + 679.31 chosen_205 + 668.010625 chosen_206 + 546.64 chosen_207
 + 530.359375 chosen_208 + 474.591875 chosen_209 + 519.7325 chosen_21
 + 751.445 chosen_210 + 471.629375 chosen_211 + 366.39375 chosen_212
 + 373.443125 chosen_213 + 330.73875 chosen_214 + 541.674375 chosen_215
 + 455.610625 chosen_216 + 548.295 chosen_217 + 365.52 chosen_218
 + 492.276875 chosen_219 + 349.951875 chosen_22 + 855.0225 chosen_220
 + 550.5 chosen_221 + 941.23875 chosen_222 + 874.22125 chosen_223
 + 673.3775 chosen_224 + 736.666875 chosen_225 + 623.2375 chosen_226
 + 848.231875 chosen_227 + 603.974375 chosen_228 + 933.7625 chosen_229
 + 393.891875 chosen_23 + 457.700625 chosen_230 + 719.21625 chosen_231
 + 529.375625 chosen_232 + 528.9475 chosen_233 + 904.380625 chosen_234
 + 855.155625 chosen_235 + 692.49125 chosen_236 + 768.470625 chosen_237
 + 707.1075 chosen_238 + 907.1775 chosen_239 + 506.369375 chosen_24
 + 832.6525 chosen_240 + 490.94375 chosen_241 + 629.824375 chosen_242
 + 754.253125 chosen_243 + 745.849375 chosen_244 + 790.429375 chosen_245
 + 840.63625 chosen_246 + 704.8375 chosen_247 + 570.811875 chosen_248
 + 696.049375 chosen_249 + 328.318125 chosen_25 + 496.59 chosen_250
 + 919.679375 chosen_251 + 495.4875 chosen_252 + 487.884375 chosen_253
 + 465.9475 chosen_254 + 356.72625 chosen_255 + 733.01875 chosen_256
 + 471.46625 chosen_257 + 726.9475 chosen_258 + 487.101875 chosen_259
 + 326.320625 chosen_26 + 474.663125 chosen_27 + 467.895625 chosen_28
 + 591.600625 chosen_29 + 316.02625 chosen_3 + 543.984375 chosen_30
 + 525.830625 chosen_31 + 537.199375 chosen_32 + 669.58 chosen_33
 + 466.346875 chosen_34 + 544.986875 chosen_35 + 532.356875 chosen_36
 + 480.46 chosen_37 + 505.368125 chosen_38 + 557.964375 chosen_39
 + 246.200625 chosen_4 + 551.196875 chosen_40 + 626.110625 chosen_41
 + 697.89875 chosen_42 + 568.0725 chosen_43 + 691.11375 chosen_44
 + 684.734375 chosen_45 + 566.435 chosen_46 + 685.994375 chosen_47
 + 330.55 chosen_48 + 306.98 chosen_49 + 256.485 chosen_5
 + 306.746875 chosen_50 + 367.99625 chosen_51 + 339.149375 chosen_52
 + 310.24 chosen_53 + 243.760625 chosen_54 + 273.3575 chosen_55
 + 307.140625 chosen_56 + 233.390625 chosen_57 + 226.015 chosen_58
 + 54.81125 chosen_59 + 378.91375 chosen_6 + 422.45375 chosen_60
 + 427.0275 chosen_61 + 421.131875 chosen_62 + 455.1725 chosen_63
 + 482.255625 chosen_64 + 456.540625 chosen_65 + 362.58 chosen_66
 + 407.85375 chosen_67 + 475.3775 chosen_68 + 364.8625 chosen_69
 + 189.705 chosen_7 + 354.135625 chosen_70 + 192.928125 chosen_71
 + 447.208125 chosen_72 + 573.328125 chosen_73 + 445.88625 chosen_74
 + 571.563125 chosen_75 + 596.45125 chosen_76 + 576.700625 chosen_77
 + 363.0775 chosen_78 + 526.673125 chosen_79 + 372.1975 chosen_8
 + 593.0075 chosen_80 + 524.885 chosen_81 + 446.039375 chosen_82
 + 326.24 chosen_83 + 612.9575 chosen_84 + 693.488125 chosen_85
 + 611.635625 chosen_86 + 726.41 chosen_87 + 715.270625 chosen_88
 + 668.604375 chosen_89 + 339.3375 chosen_9 + 501.194375 chosen_90
 + 527.170625 chosen_91 + 711.826875 chosen_92 + 696.4775 chosen_93
 + 560.89625 chosen_94 + 354.885 chosen_95 + 340.431875 chosen_96
 + 417.07625 chosen_97 + 247.01875 chosen_98 + 531.309375 chosen_99
Subject To
_C1: chosen_0 + chosen_12 + chosen_24 + chosen_36 = 1
_C10: chosen_102 + chosen_143 + chosen_184 + chosen_185 + chosen_201
 + chosen_225 + chosen_226 + chosen_242 + chosen_243 = 1
_C11: chosen_103 + chosen_143 + chosen_144 + chosen_160 + chosen_161
 + chosen_184 + chosen_185 + chosen_201 + chosen_202 + chosen_203 + chosen_225
 + chosen_226 + chosen_237 + chosen_242 + chosen_243 + chosen_244 = 1
_C12: chosen_104 + chosen_145 + chosen_164 + chosen_186 + chosen_194
 + chosen_205 + chosen_220 + chosen_227 + chosen_235 + chosen_246 = 1
_C13: chosen_105 + chosen_146 + chosen_166 + chosen_176 + chosen_187
 + chosen_190 + chosen_206 + chosen_207 + chosen_217 + chosen_228 + chosen_231
 + chosen_247 + chosen_248 + chosen_256 + chosen_258 = 1
_C14: chosen_50 + chosen_60 + chosen_62 + chosen_72 + chosen_74 + chosen_82
 + chosen_84 + chosen_86 + chosen_89 + chosen_94 = 1
_C15: chosen_106 + chosen_147 + chosen_188 + chosen_210 + chosen_229
 + chosen_251 = 1
_C16: chosen_51 + chosen_63 + chosen_65 + chosen_73 + chosen_75 + chosen_77
 + chosen_84 + chosen_85 + chosen_86 + chosen_87 + chosen_89 = 1
_C17: chosen_107 + chosen_148 + chosen_172 + chosen_189 + chosen_213
 + chosen_216 + chosen_218 + chosen_230 + chosen_254 + chosen_257 + chosen_259
 = 1
_C18: chosen_108 + chosen_149 + chosen_174 + chosen_190 + chosen_199
 + chosen_215 + chosen_228 + chosen_229 + chosen_231 + chosen_240 + chosen_251
 + chosen_256 + chosen_258 = 1
_C19: chosen_109 + chosen_139 + chosen_150 + chosen_180 + chosen_191
 + chosen_221 + chosen_232 + chosen_233 = 1
_C2: chosen_137 + chosen_170 + chosen_178 + chosen_209 + chosen_211
 + chosen_212 + chosen_219 + chosen_250 + chosen_252 + chosen_253 + chosen_96
 = 1
_C20: chosen_110 + chosen_151 + chosen_175 + chosen_192 + chosen_216
 + chosen_221 + chosen_232 + chosen_233 + chosen_257 + chosen_259 = 1
_C21: chosen_111 + chosen_140 + chosen_152 + chosen_163 + chosen_181
 + chosen_182 + chosen_193 + chosen_204 + chosen_222 + chosen_223 + chosen_227
 + chosen_234 + chosen_245 + chosen_246 = 1
_C22: chosen_1 + chosen_13 + chosen_14 + chosen_214 + chosen_24 + chosen_241
 + chosen_25 + chosen_255 + chosen_26 + chosen_36 + chosen_37 + chosen_38
 + chosen_71 + chosen_83 + chosen_90 + chosen_95 = 1
_C23: chosen_12 + chosen_13 + chosen_14 + chosen_173 + chosen_2 + chosen_200
 + chosen_214 + chosen_24 + chosen_241 + chosen_25 + chosen_255 + chosen_26
 + chosen_36 + chosen_37 + chosen_38 + chosen_83 + chosen_95 = 1
_C24: chosen_15 + chosen_16 + chosen_19 + chosen_22 + chosen_27 + chosen_28
 + chosen_29 + chosen_3 + chosen_31 + chosen_34 + chosen_39 + chosen_40
 + chosen_41 + chosen_43 + chosen_46 = 1
_C25: chosen_15 + chosen_16 + chosen_17 + chosen_27 + chosen_28 + chosen_29
 + chosen_31 + chosen_34 + chosen_39 + chosen_4 + chosen_40 + chosen_41
 + chosen_43 + chosen_46 = 1
_C26: chosen_17 + chosen_29 + chosen_41 + chosen_5 = 1
_C27: chosen_52 + chosen_64 + chosen_68 + chosen_76 + chosen_80 + chosen_88
 + chosen_92 = 1
_C28: chosen_53 + chosen_61 + chosen_63 + chosen_65 + chosen_73 + chosen_75
 + chosen_77 + chosen_85 + chosen_87 + chosen_89 + chosen_94 = 1
_C29: chosen_129 + chosen_137 + chosen_168 + chosen_170 + chosen_171
 + chosen_178 + chosen_209 + chosen_211 + chosen_212 + chosen_219 + chosen_250
 + chosen_252 + chosen_253 = 1
_C3: chosen_48 + chosen_60 + chosen_62 + chosen_70 + chosen_72 + chosen_74
 + chosen_77 + chosen_82 + chosen_84 + chosen_85 + chosen_86 + chosen_87
 + chosen_89 + chosen_94 = 1
_C30: chosen_130 + chosen_171 + chosen_212 + chosen_219 + chosen_226
 + chosen_242 + chosen_250 + chosen_252 + chosen_253 = 1
_C31: chosen_112 + chosen_153 + chosen_186 + chosen_194 + chosen_204
 + chosen_205 + chosen_223 + chosen_227 + chosen_235 + chosen_245 + chosen_246
 = 1
_C32: chosen_113 + chosen_154 + chosen_156 + chosen_162 + chosen_183
 + chosen_195 + chosen_196 + chosen_197 + chosen_203 + chosen_224 + chosen_236
 + chosen_237 + chosen_238 + chosen_244 + chosen_249 = 1
_C33: chosen_114 + chosen_155 + chosen_167 + chosen_195 + chosen_196
 + chosen_208 + chosen_236 + chosen_237 + chosen_238 + chosen_249 = 1
_C34: chosen_54 + chosen_66 + chosen_67 + chosen_69 + chosen_76 + chosen_78
 + chosen_79 + chosen_80 + chosen_81 + chosen_88 + chosen_90 + chosen_91
 + chosen_92 + chosen_93 = 1
_C35: chosen_115 + chosen_142 + chosen_156 + chosen_183 + chosen_197
 + chosen_224 + chosen_238 = 1
_C36: chosen_116 + chosen_138 + chosen_157 + chosen_179 + chosen_198
 + chosen_220 + chosen_235 + chosen_239 = 1
_C37: chosen_117 + chosen_147 + chosen_158 + chosen_169 + chosen_188
 + chosen_199 + chosen_210 + chosen_229 + chosen_240 + chosen_251 = 1
_C38: chosen_118 + chosen_159 + chosen_200 + chosen_241 + chosen_37 = 1
_C39: chosen_55 + chosen_67 + chosen_79 + chosen_81 + chosen_91 + chosen_93
 = 1
_C4: chosen_138 + chosen_157 + chosen_179 + chosen_198 + chosen_220
 + chosen_234 + chosen_239 + chosen_97 = 1
_C40: chosen_18 + chosen_20 + chosen_23 + chosen_30 + chosen_32 + chosen_33
 + chosen_35 + chosen_42 + chosen_44 + chosen_45 + chosen_47 + chosen_6 = 1
_C41: chosen_19 + chosen_31 + chosen_39 + chosen_40 + chosen_43 + chosen_46
 + chosen_7 = 1
_C42: chosen_119 + chosen_144 + chosen_160 + chosen_184 + chosen_185
 + chosen_201 + chosen_202 + chosen_225 + chosen_226 + chosen_242 + chosen_243
 + chosen_244 = 1
_C43: chosen_120 + chosen_161 + chosen_202 + chosen_243 = 1
_C44: chosen_18 + chosen_20 + chosen_21 + chosen_30 + chosen_32 + chosen_33
 + chosen_35 + chosen_42 + chosen_44 + chosen_45 + chosen_47 + chosen_8 = 1
_C45: chosen_56 + chosen_64 + chosen_68 + chosen_76 + chosen_80 + chosen_88
 + chosen_92 = 1
_C46: chosen_121 + chosen_154 + chosen_155 + chosen_162 + chosen_195
 + chosen_196 + chosen_197 + chosen_203 + chosen_208 + chosen_224 + chosen_236
 + chosen_237 + chosen_238 + chosen_244 + chosen_249 = 1
_C47: chosen_122 + chosen_141 + chosen_152 + chosen_163 + chosen_181
 + chosen_182 + chosen_193 + chosen_204 + chosen_222 + chosen_223 + chosen_234
 + chosen_239 + chosen_245 = 1
_C48: chosen_38 + chosen_57 + chosen_66 + chosen_69 + chosen_78 + chosen_79
 + chosen_81 + chosen_88 + chosen_90 + chosen_91 + chosen_92 + chosen_93 = 1
_C49: chosen_21 + chosen_33 + chosen_42 + chosen_44 + chosen_45 + chosen_47
 + chosen_9 = 1
_C5: chosen_139 + chosen_150 + chosen_180 + chosen_191 + chosen_192
 + chosen_221 + chosen_230 + chosen_232 + chosen_233 + chosen_254 + chosen_98
 = 1
_C50: chosen_123 + chosen_145 + chosen_153 + chosen_164 + chosen_179
 + chosen_186 + chosen_194 + chosen_205 + chosen_220 + chosen_227 + chosen_235
 + chosen_245 + chosen_246 = 1
_C51: chosen_124 + chosen_165 + chosen_206 + chosen_247 = 1
_C52: chosen_125 + chosen_149 + chosen_165 + chosen_166 + chosen_190
 + chosen_206 + chosen_207 + chosen_215 + chosen_217 + chosen_231 + chosen_240
 + chosen_247 + chosen_248 + chosen_256 + chosen_258 = 1
_C53: chosen_126 + chosen_167 + chosen_208 + chosen_236 + chosen_249 = 1
_C54: chosen_127 + chosen_168 + chosen_178 + chosen_209 + chosen_211
 + chosen_219 + chosen_225 + chosen_250 + chosen_252 + chosen_253 = 1
_C55: chosen_128 + chosen_158 + chosen_169 + chosen_188 + chosen_199
 + chosen_210 + chosen_229 + chosen_240 + chosen_251 = 1
_C56: chosen_131 + chosen_148 + chosen_172 + chosen_177 + chosen_189
 + chosen_213 + chosen_218 + chosen_230 + chosen_254 + chosen_257 + chosen_259
 = 1
_C57: chosen_58 + chosen_70 + chosen_72 + chosen_74 + chosen_82 + chosen_84
 + chosen_86 + chosen_94 = 1
_C58: chosen_132 + chosen_159 + chosen_173 + chosen_200 + chosen_214
 + chosen_241 + chosen_25 + chosen_255 + chosen_37 + chosen_95 = 1
_C59: chosen_255 + chosen_26 + chosen_36 + chosen_38 + chosen_59 + chosen_71
 + chosen_78 + chosen_83 + chosen_90 + chosen_91 + chosen_95 = 1
_C6: chosen_49 + chosen_61 + chosen_73 + chosen_75 + chosen_85 + chosen_87
 + chosen_93 = 1
_C60: chosen_133 + chosen_174 + chosen_187 + chosen_215 + chosen_228
 + chosen_248 + chosen_256 = 1
_C61: chosen_134 + chosen_151 + chosen_175 + chosen_180 + chosen_191
 + chosen_192 + chosen_216 + chosen_221 + chosen_232 + chosen_233 + chosen_257
 = 1
_C62: chosen_10 + chosen_22 + chosen_27 + chosen_28 + chosen_34 + chosen_39
 + chosen_40 + chosen_41 + chosen_43 + chosen_46 = 1
_C63: chosen_135 + chosen_146 + chosen_176 + chosen_187 + chosen_207
 + chosen_217 + chosen_228 + chosen_231 + chosen_247 + chosen_248 + chosen_258
 = 1
_C64: chosen_11 + chosen_23 + chosen_30 + chosen_32 + chosen_35 + chosen_42
 + chosen_44 + chosen_45 + chosen_47 = 1
_C65: chosen_136 + chosen_177 + chosen_189 + chosen_213 + chosen_218
 + chosen_230 + chosen_254 + chosen_259 = 1
_C66: chosen_0 + chosen_1 + chosen_10 + chosen_100 + chosen_101 + chosen_102
 + chosen_103 + chosen_104 + chosen_105 + chosen_106 + chosen_107 + chosen_108
 + chosen_109 + chosen_11 + chosen_110 + chosen_111 + chosen_112 + chosen_113
 + chosen_114 + chosen_115 + chosen_116 + chosen_117 + chosen_118 + chosen_119
 + chosen_12 + chosen_120 + chosen_121 + chosen_122 + chosen_123 + chosen_124
 + chosen_125 + chosen_126 + chosen_127 + chosen_128 + chosen_129 + chosen_13
 + chosen_130 + chosen_131 + chosen_132 + chosen_133 + chosen_134 + chosen_135
 + chosen_136 + chosen_137 + chosen_138 + chosen_139 + chosen_14 + chosen_140
 + chosen_141 + chosen_142 + chosen_143 + chosen_144 + chosen_145 + chosen_146
 + chosen_147 + chosen_148 + chosen_149 + chosen_15 + chosen_150 + chosen_151
 + chosen_152 + chosen_153 + chosen_154 + chosen_155 + chosen_156 + chosen_157
 + chosen_158 + chosen_159 + chosen_16 + chosen_160 + chosen_161 + chosen_162
 + chosen_163 + chosen_164 + chosen_165 + chosen_166 + chosen_167 + chosen_168
 + chosen_169 + chosen_17 + chosen_170 + chosen_171 + chosen_172 + chosen_173
 + chosen_174 + chosen_175 + chosen_176 + chosen_177 + chosen_178 + chosen_179
 + chosen_18 + chosen_180 + chosen_181 + chosen_182 + chosen_183 + chosen_184
 + chosen_185 + chosen_186 + chosen_187 + chosen_188 + chosen_189 + chosen_19
 + chosen_190 + chosen_191 + chosen_192 + chosen_193 + chosen_194 + chosen_195
 + chosen_196 + chosen_197 + chosen_198 + chosen_199 + chosen_2 + chosen_20
 + chosen_200 + chosen_201 + chosen_202 + chosen_203 + chosen_204 + chosen_205
 + chosen_206 + chosen_207 + chosen_208 + chosen_209 + chosen_21 + chosen_210
 + chosen_211 + chosen_212 + chosen_213 + chosen_214 + chosen_215 + chosen_216
 + chosen_217 + chosen_218 + chosen_219 + chosen_22 + chosen_220 + chosen_221
 + chosen_222 + chosen_223 + chosen_224 + chosen_225 + chosen_226 + chosen_227
 + chosen_228 + chosen_229 + chosen_23 + chosen_230 + chosen_231 + chosen_232
 + chosen_233 + chosen_234 + chosen_235 + chosen_236 + chosen_237 + chosen_238
 + chosen_239 + chosen_24 + chosen_240 + chosen_241 + chosen_242 + chosen_243
 + chosen_244 + chosen_245 + chosen_246 + chosen_247 + chosen_248 + chosen_249
 + chosen_25 + chosen_250 + chosen_251 + chosen_252 + chosen_253 + chosen_254
 + chosen_255 + chosen_256 + chosen_257 + chosen_258 + chosen_259 + chosen_26
 + chosen_27 + chosen_28 + chosen_29 + chosen_3 + chosen_30 + chosen_31
 + chosen_32 + chosen_33 + chosen_34 + chosen_35 + chosen_36 + chosen_37
 + chosen_38 + chosen_39 + chosen_4 + chosen_40 + chosen_41 + chosen_42
 + chosen_43 + chosen_44 + chosen_45 + chosen_46 + chosen_47 + chosen_48
 + chosen_49 + chosen_5 + chosen_50 + chosen_51 + chosen_52 + chosen_53
 + chosen_54 + chosen_55 + chosen_56 + chosen_57 + chosen_58 + chosen_59
 + chosen_6 + chosen_60 + chosen_61 + chosen_62 + chosen_63 + chosen_64
 + chosen_65 + chosen_66 + chosen_67 + chosen_68 + chosen_69 + chosen_7
 + chosen_70 + chosen_71 + chosen_72 + chosen_73 + chosen_74 + chosen_75
 + chosen_76 + chosen_77 + chosen_78 + chosen_79 + chosen_8 + chosen_80
 + chosen_81 + chosen_82 + chosen_83 + chosen_84 + chosen_85 + chosen_86
 + chosen_87 + chosen_88 + chosen_89 + chosen_9 + chosen_90 + chosen_91
 + chosen_92 + chosen_93 + chosen_94 + chosen_95 + chosen_96 + chosen_97
 + chosen_98 + chosen_99 <= 60
_C7: chosen_140 + chosen_181 + chosen_222 + chosen_99 = 1
_C8: chosen_100 + chosen_141 + chosen_182 + chosen_193 + chosen_198
 + chosen_222 + chosen_223 + chosen_234 + chosen_239 = 1
_C9: chosen_101 + chosen_142 + chosen_183 + chosen_224 = 1
Binaries
chosen_0
chosen_1
chosen_10
chosen_100
chosen_101
chosen_102
chosen_103
chosen_104
chosen_105
chosen_106
chosen_107
chosen_108
chosen_109
chosen_11
chosen_110
chosen_111
chosen_112
chosen_113
chosen_114
chosen_115
chosen_116
chosen_117
chosen_118
chosen_119
chosen_12
chosen_120
chosen_121
chosen_122
chosen_123
chosen_124
chosen_125
chosen_126
chosen_127
chosen_128
chosen_129
chosen_13
chosen_130
chosen_131
chosen_132
chosen_133
chosen_134
chosen_135
chosen_136
chosen_137
chosen_138
chosen_139
chosen_14
chosen_140
chosen_141
chosen_142
chosen_143
chosen_144
chosen_145
chosen_146
chosen_147
chosen_148
chosen_149
chosen_15
chosen_150
chosen_151
chosen_152
chosen_153
chosen_154
chosen_155
chosen_156
chosen_157
chosen_158
chosen_159
chosen_16
chosen_160
chosen_161
chosen_162
chosen_163
chosen_164
chosen_165
chosen_166
chosen_167
chosen_168
chosen_169
chosen_17
chosen_170
chosen_171
chosen_172
chosen_173
chosen_174
chosen_175
chosen_176
chosen_177
chosen_178
chosen_179
chosen_18
chosen_180
chosen_181
chosen_182
chosen_183
chosen_184
chosen_185
chosen_186
chosen_187
chosen_188
chosen_189
chosen_19
chosen_190
chosen_191
chosen_192
chosen_193
chosen_194
chosen_195
chosen_196
chosen_197
chosen_198
chosen_199
chosen_2
chosen_20
chosen_200
chosen_201
chosen_202
chosen_203
chosen_204
chosen_205
chosen_206
chosen_207
chosen_208
chosen_209
chosen_21
chosen_210
chosen_211
chosen_212
chosen_213
chosen_214
chosen_215
chosen_216
chosen_217
chosen_218
chosen_219
chosen_22
chosen_220
chosen_221
chosen_222
chosen_223
chosen_224
chosen_225
chosen_226
chosen_227
chosen_228
chosen_229
chosen_23
chosen_230
chosen_231
chosen_232
chosen_233
chosen_234
chosen_235
chosen_236
chosen_237
chosen_238
chosen_239
chosen_24
chosen_240
chosen_241
chosen_242
chosen_243
chosen_244
chosen_245
chosen_246
chosen_247
chosen_248
chosen_249
chosen_25
chosen_250
chosen_251
chosen_252
chosen_253
chosen_254
chosen_255
chosen_256
chosen_257
chosen_258
chosen_259
chosen_26
chosen_27
chosen_28
chosen_29
chosen_3
chosen_30
chosen_31
chosen_32
chosen_33
chosen_34
chosen_35
chosen_36
chosen_37
chosen_38
chosen_39
chosen_4
chosen_40
chosen_41
chosen_42
chosen_43
chosen_44
chosen_45
chosen_46
chosen_47
chosen_48
chosen_49
chosen_5
chosen_50
chosen_51
chosen_52
chosen_53
chosen_54
chosen_55
chosen_56
chosen_57
chosen_58
chosen_59
chosen_6
chosen_60
chosen_61
chosen_62
chosen_63
chosen_64
chosen_65
chosen_66
chosen_67
chosen_68
chosen_69
chosen_7
chosen_70
chosen_71
chosen_72
chosen_73
chosen_74
chosen_75
chosen_76
chosen_77
chosen_78
chosen_79
chosen_8
chosen_80
chosen_81
chosen_82
chosen_83
chosen_84
chosen_85
chosen_86
chosen_87
chosen_88
chosen_89
chosen_9
chosen_90
chosen_91
chosen_92
chosen_93
chosen_94
chosen_95
chosen_96
chosen_97
chosen_98
chosen_99
End
